100 8
959 495
236 375
347 738
484 619
455 350
211 509
108 465
460 390
295 399
553 799
213 546
844 117
138 547
795 717
415 485
163 339
284 666
759 827
919 258
430 858
158 317
842 136
830 721
316 738
767 896
802 460
467 562
841 55
274 238
964 194
162 755
148 409
446 974
821 812
457 315
787 173
381 644
212 816
979 446
837 419
833 165
765 781
145 546
804 831
185 788
75 348
496 845
493 366
514 486
714 845
286 277
802 868
235 446
337 298
200 339
560 642
869 122
945 90
645 563
746 589
699 351
755 19
655 456
686 629
287 269
153 419
897 488
519 974
860 782
834 873
526 941
718 936
258 386
798 17
440 301
897 925
166 412
840 618
213 877
804 527
151 372
220 450
163 782
893 771
798 763
800 408
518 845
182 369
895 588
756 613
257 625
740 798
763 588
903 185
352 383
453 273
219 293
183 515
807 784
268 719
